networks/zoo_28_145/zoo_28_145-lower.sol
<?xml version = "1.0" encoding="UTF-8" standalone="yes"?>
<CPLEXSolution version="1.2">
 <header
   problemName="networks/zoo_28_145/zoo_28_145-lower.lp"
   solutionName="incumbent"
   solutionIndex="-1"
   objectiveValue="13"
   solutionTypeValue="3"
   solutionTypeString="primal"
   solutionStatusValue="101"
   solutionStatusString="integer optimal solution"
   solutionMethodString="mip"
   primalFeasible="1"
   dualFeasible="1"
   MIPNodes="0"
   MIPIterations="208"
   writeLevel="3"/>
 <quality
   epInt="1.0000000000000001e-05"
   epRHS="9.9999999999999995e-07"
   maxIntInfeas="0"
   maxPrimalInfeas="0"
   maxX="1"
   maxSlack="1"/>
 <variables>
  <variable name="Y(9,11)" index="226" value="1"/>
  <variable name="Y(14,4)" index="354" value="1"/>
  <variable name="Y(28,6)" index="734" value="1"/>
  <variable name="Y(39,7)" index="1032" value="1"/>
  <variable name="Y(46,2)" index="1216" value="1"/>
  <variable name="Y(65,12)" index="1739" value="1"/>
  <variable name="Y(66,14)" index="1768" value="1"/>
  <variable name="Y(86,10)" index="2304" value="1"/>
  <variable name="Y(98,9)" index="2627" value="1"/>
  <variable name="Y(102,1)" index="2727" value="1"/>
  <variable name="Y(114,3)" index="3053" value="1"/>
  <variable name="Y(129,8)" index="3463" value="1"/>
  <variable name="Y(138,5)" index="3703" value="1"/>
  <variable name="X(1,7,9)" index="3923" value="1"/>
  <variable name="X(1,15,102)" index="4161" value="1"/>
  <variable name="X(2,7,14)" index="4218" value="1"/>
  <variable name="X(2,16,46)" index="4395" value="1"/>
  <variable name="X(3,17,114)" index="4608" value="1"/>
  <variable name="X(4,7,28)" index="4667" value="1"/>
  <variable name="X(4,18,14)" index="4798" value="1"/>
  <variable name="X(5,8,39)" index="4968" value="1"/>
  <variable name="X(5,19,138)" index="5212" value="1"/>
  <variable name="X(6,7,46)" index="5265" value="1"/>
  <variable name="X(6,20,28)" index="5392" value="1"/>
  <variable name="X(7,1,102)" index="5611" value="1"/>
  <variable name="X(7,2,46)" index="5700" value="1"/>
  <variable name="X(7,3,114)" index="5913" value="1"/>
  <variable name="X(7,4,14)" index="5958" value="1"/>
  <variable name="X(7,6,28)" index="6117" value="1"/>
  <variable name="X(7,8,66)" index="6300" value="1"/>
  <variable name="X(7,9,98)" index="6477" value="1"/>
  <variable name="X(7,10,86)" index="6610" value="1"/>
  <variable name="X(7,11,9)" index="6678" value="1"/>
  <variable name="X(7,12,65)" index="6879" value="1"/>
  <variable name="X(7,21,39)" index="6998" value="1"/>
  <variable name="X(8,5,138)" index="7242" value="1"/>
  <variable name="X(8,7,39)" index="7288" value="1"/>
  <variable name="X(8,14,66)" index="7460" value="1"/>
  <variable name="X(8,22,129)" index="7668" value="1"/>
  <variable name="X(9,7,86)" index="7770" value="1"/>
  <variable name="X(9,23,98)" index="7927" value="1"/>
  <variable name="X(10,7,98)" index="8072" value="1"/>
  <variable name="X(10,24,86)" index="8205" value="1"/>
  <variable name="X(11,7,102)" index="8366" value="1"/>
  <variable name="X(11,25,9)" index="8418" value="1"/>
  <variable name="X(12,7,114)" index="8668" value="1"/>
  <variable name="X(12,26,65)" index="8764" value="1"/>
  <variable name="X(13,8,129)" index="8973" value="1"/>
  <variable name="X(14,8,138)" index="9127" value="1"/>
  <variable name="X(14,28,66)" index="9200" value="1"/>
 </variables>
</CPLEXSolution>
